\ This file has been generated by DOcplex
\ ENCODING=ISO-8859-1
\Problem name: random_problem.lp

Minimize
 obj: - 20 x0 - 10 x1 - 5 x2 + 800 x3 + 400 x4 + 200 x5 - 472 x6 - 236 x7
      - 118 x8 + [ 3648 x0^2 + 3648 x0*x1 + 1824 x0*x2 + 10944 x0*x3
      + 5472 x0*x4 + 2736 x0*x5 + 1216 x0*x6 + 608 x0*x7 + 304 x0*x8 + 912 x1^2
      + 912 x1*x2 + 5472 x1*x3 + 2736 x1*x4 + 1368 x1*x5 + 608 x1*x6 + 304 x1*x7
      + 152 x1*x8 + 228 x2^2 + 2736 x2*x3 + 1368 x2*x4 + 684 x2*x5 + 304 x2*x6
      + 152 x2*x7 + 76 x2*x8 + 10112 x3^2 + 10112 x3*x4 + 5056 x3*x5
      + 2432 x3*x6 + 1216 x3*x7 + 608 x3*x8 + 2528 x4^2 + 2528 x4*x5
      + 1216 x4*x6 + 608 x4*x7 + 304 x4*x8 + 632 x5^2 + 608 x5*x6 + 304 x5*x7
      + 152 x5*x8 + 9792 x6^2 + 9792 x6*x7 + 4896 x6*x8 + 2448 x7^2 + 2448 x7*x8
      + 612 x8^2 ]/2
Subject To
 c0: 4 x0 + 2 x1 + x2 + 4 x3 + 2 x4 + x5 + 4 x6 + 2 x7 + x8 = 7

Bounds
 0 <= x0 <= 1
 0 <= x1 <= 1
 0 <= x2 <= 1
 0 <= x3 <= 1
 0 <= x4 <= 1
 0 <= x5 <= 1
 0 <= x6 <= 1
 0 <= x7 <= 1
 0 <= x8 <= 1

Binaries
 x0 x1 x2 x3 x4 x5 x6 x7 x8
End
